000 000 000 000 000 000 -99 000 -99 -99 -99 -99 -99 000 000 -99 000 000 000 000 000 000 -99 000 001 001 001 002 001 -99 -99
000 000 000 000 000 000 000 000 000 -99 -99 -99 -99 000 000 000 000 000 -99 000 000 000 000 001 000 000 000 -99 000 -99 -99
000 000 000 000 000 000 000 000 000 000 -99 -99 -99 -99 000 000 000 000 -99 000 000 000 000 000 000 000 000 006 003 -99 -99
000 000 000 000 000 000 000 -99 000 000 -99 000 000 -99 000 000 -99 -99 -99 -99 -99 -99 000 000 000 -99 -99 005 008 -99 -99
000 000 000 000 000 000 000 000 000 000 -99 000 000 000 -99 -99 -99 -99 -99 -99 000 000 000 -99 000 -99 -99 -99 -99 -99 -99
000 000 000 000 000 -99 000 000 000 -99 -99 -99 000 -99 -99 -99 -99 -99 -99 -99 000 -99 000 000 -99 -99 -99 -99 -99 -99 -99
000 000 -99 000 000 -99 000 000 000 -99 -99 -99 -99 000 -99 -99 000 000 -99 -99 -99 -99 -99 000 000 -99 -99 -99 -99 -99 -99
000 000 000 000 000 -99 -99 000 000 000 -99 -99 -99 -99 -99 -99 000 000 000 -99 000 -99 -99 000 000 -99 -99 -99 -99 -99 -99
000 000 000 000 000 -99 -99 -99 000 000 000 -99 -99 -99 -99 -99 000 000 000 -99 000 -99 -99 -99 000 -99 -99 -99 -99 -99 -99
000 000 000 000 000 000 000 -99 -99 000 000 000 -99 -99 -99 000 000 000 000 -99 000 000 -99 -99 000 000 -99 000 000 000 -99
000 000 000 000 000 000 000 000 -99 000 000 000 -99 -99 -99 000 000 000 000 000 000 000 -99 -99 -99 -99 -99 000 000 000 000
000 000 000 000 000 000 000 000 000 000 000 000 000 -99 -99 000 000 000 000 000 000 000 -99 000 000 -99 -99 000 000 000 000
000 000 000 000 000 000 000 000 -99 -99 000 000 000 -99 -99 000 000 000 000 000 -99 000 -99 000 000 000 -99 -99 000 000 000
000 -99 000 000 000 000 000 000 -99 -99 000 000 000 -99 -99 -99 000 000 000 000 -99 -99 -99 000 000 -99 -99 000 000 -99 000
000 000 -99 000 000 000 000 000 -99 -99 -99 -99 -99 000 -99 000 000 000 000 -99 -99 000 -99 000 000 000 -99 -99 000 000 -99
000 -99 -99 -99 000 000 000 000 000 -99 -99 -99 -99 000 000 000 000 -99 000 -99 -99 000 -99 000 000 000 000 000 000 000 -99
000 -99 -99 -99 000 000 000 000 000 -99 -99 -99 -99 000 000 -99 000 000 000 -99 -99 -99 -99 000 000 000 000 000 000 000 -99
000 000 000 -99 -99 -99 000 000 000 000 000 -99 -99 -99 000 -99 000 000 -99 -99 -99 -99 000 -99 000 -99 000 -99 000 000 -99
000 000 000 000 -99 -99 -99 000 000 000 000 000 -99 -99 000 -99 000 000 -99 -99 -99 000 000 -99 -99 -99 000 000 000 -99 -99
000 000 000 000 000 000 -99 -99 000 000 000 000 -99 -99 -99 -99 000 000 000 -99 -99 000 000 -99 -99 -99 -99 -99 -99 -99 -99
000 000 000 000 000 000 -99 -99 000 000 000 000 -99 -99 -99 000 000 000 000 -99 -99 000 000 -99 -99 -99 -99 -99 -99 -99 -99
000 000 000 000 000 000 000 000 000 000 -99 000 -99 -99 -99 000 000 000 000 000 000 000 000 -99 -99 -99 -99 -99 -99 -99 -99
000 000 000 000 000 000 000 000 000 -99 -99 -99 -99 -99 000 000 000 000 000 000 000 000 000 -99 -99 -99 -99 -99 -99 -99 -99
000 000 000 000 000 000 000 000 000 -99 -99 -99 000 000 000 000 000 000 000 000 000 000 000 -99 -99 -99 -99 -99 -99 -99 -99
000 000 000 000 000 000 000 000 000 -99 -99 -99 000 000 000 000 000 000 000 000 000 000 000 -99 -99 -99 -99 -99 -99 -99 -99
000 000 000 000 000 000 000 000 000 000 -99 -99 000 000 000 000 000 000 000 000 000 -99 -99 -99 -99 -99 -99 -99 -99 -99 000
000 000 000 000 000 000 000 000 000 000 -99 -99 -99 000 000 000 000 000 000 -99 -99 000 -99 -99 -99 -99 -99 -99 -99 -99 000
000 000 000 000 000 000 000 000 000 000 -99 -99 -99 000 000 000 000 000 000 000 000 000 -99 -99 -99 -99 -99 -99 -99 -99 000
000 000 000 000 000 000 000 000 000 000 -99 -99 -99 000 000 000 000 000 000 000 000 000 -99 -99 -99 -99 -99 -99 -99 -99 000
000 000 000 000 000 000 000 000 000 000 -99 -99 -99 000 000 000 000 000 000 000 -99 000 -99 -99 -99 -99 -99 -99 -99 -99 -99
000 000 000 000 000 000 000 000 000 000 -99 -99 -99 000 000 000 000 000 000 000 -99 -99 -99 -99 -99 -99 -99 -99 -99 -99 -99
000 000 000 000 000 000 000 000 000 -99 -99 -99 -99 000 000 000 000 000 000 -99 -99 -99 000 000 000 -99 -99 -99 -99 -99 -99
000 000 000 000 000 000 000 000 000 -99 -99 -99 -99 000 000 -99 000 000 000 -99 -99 000 000 000 000 -99 -99 -99 -99 -99 -99
000 000 000 000 000 000 000 000 000 000 -99 -99 -99 000 000 000 000 000 -99 -99 -99 000 000 000 000 000 000 000 000 -99 -99
000 000 000 000 000 000 000 000 000 000 -99 -99 -99 000 000 -99 000 -99 -99 -99 000 -99 000 000 000 000 000 000 000 -99 -99
000 000 000 000 000 000 -99 000 000 000 -99 000 000 000 000 000 000 000 -99 000 000 000 000 000 000 000 000 000 000 000 -99
000 000 -99 000 000 -99 -99 000 000 -99 -99 -99 000 000 000 000 000 000 -99 000 000 000 000 000 000 000 000 000 000 000 000
000 -99 -99 -99 000 -99 -99 000 -99 -99 -99 -99 -99 000 000 000 000 000 000 000 000 -99 000 000 000 000 000 000 -99 000 000
000 -99 000 000 000 000 -99 -99 -99 -99 -99 -99 -99 000 000 000 000 000 000 000 000 -99 000 000 000 000 000 -99 -99 -99 -99
000 000 -99 000 000 000 -99 -99 -99 -99 -99 000 000 000 000 000 000 000 000 000 -99 -99 -99 000 -99 000 000 -99 -99 -99 -99
000 -99 000 000 000 000 000 000 -99 -99 000 000 000 000 000 000 -99 -99 -99 -99 -99 -99 -99 -99 -99 000 -99 -99 -99 -99 -99
-99 -99 000 000 000 -99 -99 000 000 -99 000 000 000 000 000 -99 -99 000 000 -99 -99 -99 -99 -99 000 -99 -99 -99 -99 -99 -99
000 000 000 000 -99 000 000 -99 -99 000 -99 000 000 000 -99 000 -99 000 000 000 000 -99 -99 -99 -99 -99 -99 -99 -99 -99 -99
000 000 -99 -99 -99 000 -99 -99 000 000 000 000 000 000 000 000 000 000 000 000 000 -99 -99 -99 -99 -99 -99 -99 -99 -99 -99
000 -99 -99 -99 000 000 000 -99 000 000 000 000 000 000 000 000 000 000 000 000 000 -99 -99 -99 -99 -99 -99 -99 -99 -99 -99
-99 -99 -99 -99 000 000 -99 -99 000 000 -99 -99 000 000 000 000 000 000 000 000 -99 -99 -99 -99 -99 -99 -99 -99 -99 -99 -99
-99 -99 000 000 000 -99 -99 -99 000 -99 -99 -99 000 000 000 000 000 000 000 000 -99 -99 000 -99 -99 -99 -99 -99 -99 -99 -99
-99 -99 -99 000 -99 -99 -99 000 -99 -99 000 000 000 000 000 -99 -99 000 000 -99 -99 -99 000 -99 -99 -99 -99 -99 -99 -99 -99
-99 -99 -99 -99 -99 -99 -99 -99 -99 -99 000 000 000 000 000 000 -99 000 000 -99 -99 -99 000 -99 -99 -99 -99 -99 -99 -99 -99
-99 -99 -99 -99 -99 -99 -99 -99 -99 000 000 000 000 000 000 -99 -99 000 000 -99 -99 000 -99 -99 -99 -99 -99 -99 -99 -99 -99
-99 -99 -99 -99 -99 -99 -99 -99 000 000 000 000 000 000 -99 -99 -99 -99 000 000 -99 -99 -99 -99 -99 -99 -99 -99 -99 -99 -99
-99 -99 -99 -99 -99 -99 -99 -99 000 000 000 000 000 -99 -99 -99 -99 -99 000 000 -99 -99 -99 -99 -99 -99 -99 -99 -99 -99 -99
-99 -99 -99 -99 -99 -99 -99 -99 -99 -99 000 -99 -99 -99 -99 -99 -99 000 000 -99 -99 -99 -99 -99 -99 -99 -99 -99 -99 -99 -99
-99 -99 -99 -99 -99 -99 -99 -99 -99 -99 -99 -99 -99 -99 -99 -99 -99 000 000 -99 -99 -99 -99 -99 -99 -99 -99 -99 -99 -99 -99
-99 -99 -99 -99 -99 -99 -99 -99 -99 -99 -99 -99 -99 -99 001 001 -99 -99 -99 -99 -99 -99 -99 -99 -99 -99 -99 -99 -99 -99 -99
